(set-logic ALL)
(declare-fun i1 () Int)
(declare-fun it176 () Int)
(declare-fun it177 () Int)
(declare-fun i2 () Int)
(declare-fun it178 () Int)
(declare-fun i3 () Int)
(declare-fun it179 () Int)
(declare-fun i4 () Int)
(declare-fun it180 () Int)
(declare-fun i5 () Int)
(declare-fun it181 () Int)
(declare-fun i6 () Int)
(declare-fun i7 () Int)
(declare-fun it182 () Int)
(declare-fun it415 () Int)
(declare-fun it416 () Int)
(declare-fun it417 () Int)
(declare-fun it418 () Int)
(declare-fun it419 () Int)
(declare-fun it420 () Int)
(declare-fun it421 () Int)
(declare-fun it496 () Int)
(declare-fun it497 () Int)
(declare-fun it498 () Int)
(declare-fun it499 () Int)
(declare-fun it500 () Int)
(declare-fun it501 () Int)
(declare-fun it502 () Int)
(declare-fun it503 () Int)
(declare-fun it504 () Int)
(declare-fun it505 () Int)
(declare-fun it506 () Int)
(declare-fun it507 () Int)
(declare-fun it508 () Int)
(declare-fun it509 () Int)
(declare-fun it107 () Int)
(assert (= (+ i1 (- 1)) 0))
(assert (= (+ it176 (- 2)) 0))
(assert (= (+ (* i2 (- 1)) it177 (- 1)) 0))
(assert (= (+ (* i3 (- 1)) it178) 0))
(assert (= (+ (* i4 (- 1)) it179) 0))
(assert (= (+ (* i5 (- 1)) it180) 0))
(assert (= (+ (* i6 (- 1)) it181) 0))
(assert (= (+ it182 (* i7 (- 1))) 0))
(assert (and (<= (+ (* it181 (- 1)) (- 5)) 0)
     (<= (+ it181 (- 5)) 0)
     (= (+ it176 (- 2)) 0)
     (> it178 0)))
(assert (= (+ it415 (- 3)) 0))
(assert (= (+ (* it177 (- 1)) it416 (- 2)) 0))
(assert (= (+ it417 (* it178 (- 1))) 0))
(assert (= (+ it418 (* it178 (- 1))) 0))
(assert (= (+ (* it182 (- 1)) it419) 0))
(assert (= (+ it420 (* it181 (- 1))) 0))
(assert (= (+ (* it182 (- 1)) it421) 0))
(assert (let ((a!1 (< (+ (exp it418 2) (exp it420 5) (+ 0 (* it419 (- 1)))) (+ 0 0))))
  (and (= (+ it415 (- 3)) 0) a!1 (> it418 0))))
(assert (= (+ it496 (- 3)) 0))
(assert (= (+ it497 (* it416 (- 1)) (- 2)) 0))
(assert (= (+ (* it417 (- 1)) it498) 0))
(assert (= (+ it499 (* it418 2)) 0))
(assert (let ((a!1 (+ (+ 0 (+ it500 (* it419 (- 3)))) (* (exp it420 3) (+ 0 2)))))
  (= a!1 (+ 0 0))))
(assert (= (+ (* it420 (- 1)) it501) 0))
(assert (= (+ it502 (* it421 (- 1))) 0))
(assert (let ((a!1 (< (+ (exp it499 2) (exp it501 5) (+ 0 (* it500 (- 1)))) (+ 0 0))))
  (and (= (+ it496 (- 3)) 0) a!1 (< it499 0))))
(assert (= (+ it503 (- 3)) 0))
(assert (= (+ (* it497 (- 1)) it504 (- 2)) 0))
(assert (= (+ it505 (* it498 (- 1))) 0))
(assert (= (+ (* it499 2) it506) 0))
(assert (= (+ (* (exp it501 3) (+ 0 2)) (+ 0 (* it500 (- 3))) (+ 0 it507))
   (+ 0 0)))
(assert (= (+ (* it501 (- 1)) it508) 0))
(assert (= (+ (* it502 (- 1)) it509) 0))
(assert (let ((a!1 (* (* (exp 9 (+ it107 (- 1))) (exp it508 3)) (+ 0 (- 3))))
      (a!2 (* (exp (exp 4 (+ it107 (- 1))) (+ 0 2)) (exp it506 2)))
      (a!3 (* (* (+ 0 it507) (exp 9 (+ it107 (- 1)))) (+ 0 3)))
      (a!5 (> (+ (* (exp it506 2) (+ 0 (- 4)))
                 (* (exp it508 3) (+ 0 (- 2)))
                 (+ 0 (* it507 3))
                 (* (exp it508 5) (+ 0 (- 1))))
              (+ 0 0)))
      (a!6 (> (+ (* (exp it506 2) (+ 0 (- 1)))
                 (+ 0 it507)
                 (* (exp it508 5) (+ 0 (- 1))))
              (+ 0 0)))
      (a!7 (* (* (exp 9 (+ it107 (- 1))) (exp it508 3)) (+ 0 (- 1)))))
(let ((a!4 (> (+ (exp it508 3)
                 a!1
                 (* a!2 (+ 0 (- 4)))
                 a!3
                 (* (exp it508 5) (+ 0 (- 1))))
              (+ 0 0)))
      (a!8 (+ (exp it508 3)
              a!7
              (* a!2 (+ 0 (- 1)))
              (* (+ 0 it507) (exp 9 (+ it107 (- 1))))
              (* (exp it508 5) (+ 0 (- 1))))))
  (and a!4
       (>= (+ it107 (- 1)) 0)
       a!5
       a!6
       (>= (+ it503 (- 3)) 0)
       (> (* it506 (- 2)) 0)
       (> a!8 (+ 0 0))
       (>= (+ (* it503 (- 1)) 3) 0)
       (> (* it506 (- 1)) 0)))))
(check-sat)
